language Essence 1.3

letting class be
        function(1 --> 2, 2 --> 3, 3 --> 2, 4 --> 1, 5 --> 1, 6 --> 2, 7 --> 3, 8 --> 3, 9 --> 3, 10 --> 3, 11 --> 3,
                 12 --> 1, 13 --> 3, 14 --> 1, 15 --> 1, 16 --> 2, 17 --> 1, 18 --> 2, 19 --> 2, 20 --> 2, 21 --> 3,
                 22 --> 1, 23 --> 3, 24 --> 3, 25 --> 2, 26 --> 3, 27 --> 3, 28 --> 3, 29 --> 3, 30 --> 2, 31 --> 2,
                 32 --> 1, 33 --> 2, 34 --> 2, 35 --> 3, 36 --> 1, 37 --> 1, 38 --> 3, 39 --> 2, 40 --> 1, 41 --> 1,
                 42 --> 2, 43 --> 3, 44 --> 1, 45 --> 3, 46 --> 3, 47 --> 2, 48 --> 3)
letting deck_length be 188
letting deck_width be 50
letting length be
        function(1 --> 2, 2 --> 1, 3 --> 1, 4 --> 1, 5 --> 2, 6 --> 1, 7 --> 1, 8 --> 1, 9 --> 1, 10 --> 1, 11 --> 1,
                 12 --> 45, 13 --> 1, 14 --> 1, 15 --> 1, 16 --> 1, 17 --> 2, 18 --> 1, 19 --> 1, 20 --> 1, 21 --> 1,
                 22 --> 1, 23 --> 1, 24 --> 1, 25 --> 1, 26 --> 1, 27 --> 1, 28 --> 1, 29 --> 1, 30 --> 1, 31 --> 1,
                 32 --> 2, 33 --> 1, 34 --> 1, 35 --> 1, 36 --> 1, 37 --> 1, 38 --> 1, 39 --> 1, 40 --> 1, 41 --> 1,
                 42 --> 1, 43 --> 1, 44 --> 1, 45 --> 1, 46 --> 24, 47 --> 1, 48 --> 1)
letting n_classes be 3
letting n_containers be 48
letting separation be function({1, 2} --> 101, {2, 3} --> 13)
letting width be
        function(1 --> 41, 2 --> 9, 3 --> 34, 4 --> 24, 5 --> 17, 6 --> 28, 7 --> 44, 8 --> 29, 9 --> 4, 10 --> 1,
                 11 --> 18, 12 --> 50, 13 --> 20, 14 --> 11, 15 --> 37, 16 --> 15, 17 --> 33, 18 --> 32, 19 --> 3,
                 20 --> 45, 21 --> 14, 22 --> 29, 23 --> 42, 24 --> 15, 25 --> 37, 26 --> 30, 27 --> 2, 28 --> 25,
                 29 --> 22, 30 --> 30, 31 --> 24, 32 --> 2, 33 --> 32, 34 --> 18, 35 --> 14, 36 --> 25, 37 --> 34,
                 38 --> 40, 39 --> 1, 40 --> 11, 41 --> 1, 42 --> 40, 43 --> 44, 44 --> 6, 45 --> 41, 46 --> 47,
                 47 --> 6, 48 --> 11)
